(declare-fun var0 () String)
(assert (str.in.re var0 (re.++ (re.union (re.union (str.to.re "dd") (str.to.re "eee")) (re.+ (str.to.re "ff"))) (re.++ (re.+ (re.+ (str.to.re "cc"))) (re.++ (re.union (re.union (str.to.re "999") (str.to.re "aaa")) (re.* (str.to.re "b"))) (re.++ (re.+ (re.+ (str.to.re "88"))) (re.++ (re.union (re.* (str.to.re "5")) (re.union (str.to.re "6") (str.to.re "777"))) (re.++ (re.union (re.* (str.to.re "222")) (re.union (str.to.re "33") (str.to.re "44"))) (re.union (re.+ (str.to.re "000")) (re.* (str.to.re "111")))))))))))
(check-sat)